602,-97
532,112
787,352
923,230
1051,286
998,-30
1162,161
923,230
539,360
334,583
385,702
672,434
707,393
681,556
733,478
826,511
858,378
888,438
1045,670
935,660
858,378
787,352
980,-6
532,112
633,371
617,207
1020,745
826,511
733,478
672,434
548,338
560,318
617,605
269,705
334,583
326,462
